#SOLVERNAME# PAJ_CPLEX_MOSEK_msdprimonlynorelax
#SOLVER# Pajarito.PajaritoSolver(3,3600.0,1.0e-5,true,CPLEX.CplexSolver(Any[(:CPX_PARAM_THREADS,1),(:CPX_PARAM_SCRIND,1),(:CPX_PARAM_EPINT,1.0e-8),(:CPX_PARAM_EPRHS,1.0e-7),(:CPX_PARAM_EPGAP,1.0e-5)]),Pajarito.UnsetSolver(),0,false,true,Mosek.MosekMathProgSolverInterface.MosekSolver(Any[(:LOG,0),(:NUM_THREADS,1)]),false,true,false,false,true,false,false,true,false,true,true,true,true,false,true,2.0,true,true,false,true,1.0e-10,1.0e-6)
#INSTANCE# sssd-strong-25-4.cbf.gz
#TIMELIMIT# 3600.0

Problem dimensions:
       variables |       165
     constraints |       230
   nonzeros in A |       492

Cones summary:
Cone             | Count     | Min dim.  | Max dim. 
    Rotated S.O. |        12 |         3 |         3

Variable types:
      continuous |        53
         integer |       112

Transforming data...               0.01s

Creating conic subproblem...       0.01s

Building MIP model...              0.00s

Mixed integer rounding cuts applied:  9
Gomory fractional cuts applied:  3
User cuts applied:  152

Root node processing (before b&c):
  Real time             =    0.70 sec. (18.67 ticks)
Sequential b&c:
  Real time             =    0.01 sec. (7.92 ticks)
                          ------------
Total (root+branch&cut) =    0.71 sec. (26.59 ticks)
Warning: Control callbacks may disable some MIP features.
Tried aggregator 2 times.
MIP Presolve eliminated 157 rows and 0 columns.
Aggregator did 28 substitutions.
Reduced MIP has 129 rows, 160 columns, and 652 nonzeros.
Reduced MIP has 112 binaries, 0 generals, 0 SOSs, and 0 indicators.
Presolve time = 0.00 sec. (0.40 ticks)
Probing time = 0.00 sec. (0.07 ticks)
Clique table members: 29.
MIP emphasis: balance optimality and feasibility.
MIP search method: traditional branch-and-cut.
Parallel mode: none, using 1 thread.
Root relaxation solution time = 0.00 sec. (1.18 ticks)

        Nodes                                         Cuts/
   Node  Left     Objective  IInf  Best Integer    Best Bound    ItCnt     Gap

      0     0   180358.8194    18                 180358.8194      157         
*     0+    0                       312023.1682   180358.8194            42.20%
      0     0   210566.5620    21   312023.1682      Cuts: 15      189   32.52%
*     0+    0                       312023.1202   210566.5620            32.52%
      0     0   218734.2781    17   312023.1202       Cuts: 5      202   29.90%
      0     0   218740.6748    21   312023.1202    MIRcuts: 6      205   29.90%
      0     0   218749.7130    23   312023.1202       Cuts: 3      208   29.89%
      0     0   218750.4271    25   312023.1202    MIRcuts: 2      210   29.89%
      0     2   218750.4271    25   312023.1202   219224.2064      210   29.74%
Elapsed time = 0.03 sec. (20.57 ticks, tree = 0.01 MB, solutions = 1)
*    70+   44                       311905.7606   310583.7618             0.42%
*   100+   65                       311903.6125   310584.4324             0.42%
*   101+   66                       311903.5852   310584.4324             0.42%
*   180+  128                       311862.9130   310597.9661             0.41%
*   181+  129                       311860.1888   310597.9661             0.40%
*   210+  147                       311840.9812   310615.8858             0.39%
*   211+  148                       311840.9703   310615.8858             0.39%
*   460+  258                       311808.4953   311510.6815             0.10%
*   461+  259                       311808.4758   311510.6815             0.10%
*   578   230      integral     0   311741.4915   311543.3294     2188    0.06%
*   857+   68                       311715.5822   311696.3732             0.01%

Starting MIP-solver-driven algorithm

MIP-solver-driven algorithm summary:
 - Status               =        Optimal
 - Best feasible        =  +3.117156e+05
 - Best bound           =  +3.117128e+05
 - Relative opt. gap    =      9.025e-06
 - Total time (s)       =       2.87e-01

Timers (s):
 - Setup                =   1.73e-02
 -- Transform data      =   7.26e-03
 -- Create conic data   =   9.27e-03
 -- Create MIP data     =   7.53e-04
 - Algorithm            =   2.70e-01
 -- Solve relaxation    =   0.00e+00
 -- Get relaxation cuts =   0.00e+00
 -- MIP solver driving  =   2.70e-01
 -- Solve subproblems   =   1.58e-02
 -- Get subproblem cuts =   0.00e+00
 -- Get primal cuts     =   8.10e-04

Counters:
 - Lazy callbacks       =    21
 -- Integer repeats     =     6
 -- Conic subproblems   =    15
 --- Infeasible         =     0
 --- Optimal            =    15
 --- Suboptimal         =     0
 --- UserLimit          =     0
 --- ConicFailure       =     0
 --- Other status       =     0
 -- Feasible solutions  =    25
 --- From subproblems   =    15
 --- In lazy callback   =    10
 - Heuristic callbacks  =   699
 -- Solutions passed    =     8

Solution returned by MIP solver

Outer-approximation cuts added:
Cone             | Relax.    | Violated  | Nonviol. 
    Second order |         0 |        76 |         0

0 numerically unstable cone duals encountered

Distance to feasibility (negative indicates strict feasibility):
Cone             | Variable  | Constraint
          Linear |  0.00e+00 |  8.88e-16
    Rotated S.O. |        NA |  6.96e-06

Distance to integrality of integer/binary variables:
         integer |  0.00e+00


Cover cuts applied:  1
Mixed integer rounding cuts applied:  9
Gomory fractional cuts applied:  5
User cuts applied:  76

Root node processing (before b&c):
  Real time             =    0.03 sec. (20.58 ticks)
Sequential b&c:
  Real time             =    0.24 sec. (167.76 ticks)
                          ------------
Total (root+branch&cut) =    0.27 sec. (188.34 ticks)
#STATUS# Optimal
#OBJVAL# 311715.58218588424
#OBJBOUND# 311712.7690481348
#TIMESOLVER# 0.2869532108306885
#TIMEALL# 0.3206920623779297
#SOLUTION# [-0.0,1.0,-0.0,0.0,-0.0,1.0,0.0,0.0,-0.0,-0.0,0.0,1.0,-0.0,-0.0,-0.0,1.0,1.0,-0.0,0.0,-0.0,-0.0,-0.0,-0.0,1.0,1.0,-0.0,0.0,-0.0,-0.0,-0.0,1.0,-0.0,-0.0,1.0,0.0,0.0,-0.0,-0.0,1.0,0.0,-0.0,0.0,0.0,1.0,-0.0,-0.0,1.0,-0.0,-0.0,1.0,0.0,-0.0,-0.0,1.0,0.0,0.0,-0.0,0.0,0.0,1.0,-0.0,-0.0,1.0,-0.0,-0.0,-0.0,1.0,-0.0,0.0,1.0,0.0,0.0,-0.0,0.0,0.0,1.0,-0.0,-0.0,-0.0,1.0,1.0,-0.0,0.0,-0.0,-0.0,1.0,0.0,0.0,1.0,-0.0,0.0,-0.0,-0.0,-0.0,1.0,-0.0,1.0,-0.0,0.0,-0.0,0.0,0.0,1.0,0.0,0.0,1.0,-0.0,0.0,1.0,0.0,0.0,1.0,0.625459935648963,0.8111432737356261,0.8456627244262379,0.8633211913868719,0.0,0.0,0.3848000769365703,0.0,0.0,0.44786566832562796,0.0,0.0,0.45819931900603317,0.0,0.0,0.46332388824597864,0.0,0.3127299678244815,0.3127299678244815,0.12032992935619632,0.40557163686781306,0.40557163686781306,0.18163880270499905,0.42283136221311896,0.42283136221311896,0.19373170271010237,0.43166059569343596,0.43166059569343596,0.1999986515704466,0.625459935648963,0.625459935648963,1.625459935648963,0.8111432737356261,0.8111432737356261,1.8111432737356261,0.8456627244262379,0.8456627244262379,1.845662724426238,0.8633211913868719,0.8633211913868719,1.863321191386872,0.625459935648963,0.625459935648963,0.625459935648963,0.8111432737356261,0.8111432737356261,0.8111432737356261,0.8456627244262379,0.8456627244262379,0.8456627244262379,0.8633211913868719,0.8633211913868719,0.8633211913868719]
